\ QUBO from TSP

Minimize
  obj: 0 + [ -277.0415131347647 x1 * x1 + 277.0415131347647 x1 * x2 + 277.0415131347647 x1 * x3 + 277.0415131347647 x1 * x4 + 36.22154055254967 x1 * x5 + 277.0415131347647 x1 * x7 + 46.17358552246078 x1 * x8 - 277.0415131347647 x2 * x2 + 277.0415131347647 x2 * x3 + 36.22154055254967 x2 * x4 + 277.0415131347647 x2 * x5 + 36.22154055254967 x2 * x6 + 46.17358552246078 x2 * x7 + 277.0415131347647 x2 * x8 + 46.17358552246078 x2 * x9 - 277.0415131347647 x3 * x3 + 36.22154055254967 x3 * x5 + 277.0415131347647 x3 * x6 + 46.17358552246078 x3 * x8 + 277.0415131347647 x3 * x9 - 277.0415131347647 x4 * x4 + 277.0415131347647 x4 * x5 + 277.0415131347647 x4 * x6 + 277.0415131347647 x4 * x7 + 12.806248474865697 x4 * x8 - 277.0415131347647 x5 * x5 + 277.0415131347647 x5 * x6 + 12.806248474865697 x5 * x7 + 277.0415131347647 x5 * x8 + 12.806248474865697 x5 * x9 - 277.0415131347647 x6 * x6 + 12.806248474865697 x6 * x8 + 277.0415131347647 x6 * x9 - 277.0415131347647 x7 * x7 + 277.0415131347647 x7 * x8 + 277.0415131347647 x7 * x9 - 277.0415131347647 x8 * x8 + 277.0415131347647 x8 * x9 - 277.0415131347647 x9 * x9 ] / 2

Subject To

 

Binary
x1 x2 x3 x4 x5 x6 x7 x8 x9
End