\ QUBO from TSP

Minimize
  obj: 0 + [ -680 x1 * x1 + 680 x1 * x2 + 680 x1 * x3 + 680 x1 * x4 + 680 x1 * x5 + 680 x1 * x6 + 56.639209034025185 x1 * x7 + 680 x1 * x11 + 49.47726750741192 x1 * x12 + 680 x1 * x16 + 68 x1 * x17 + 680 x1 * x21 + 62.6418390534633 x1 * x22 - 680 x2 * x2 + 680 x2 * x3 + 680 x2 * x4 + 680 x2 * x5 + 56.639209034025185 x2 * x6 + 680 x2 * x7 + 56.639209034025185 x2 * x8 + 49.47726750741192 x2 * x11 + 680 x2 * x12 + 49.47726750741192 x2 * x13 + 68 x2 * x16 + 680 x2 * x17 + 68 x2 * x18 + 62.6418390534633 x2 * x21 + 680 x2 * x22 + 62.6418390534633 x2 * x23 - 680 x3 * x3 + 680 x3 * x4 + 680 x3 * x5 + 56.639209034025185 x3 * x7 + 680 x3 * x8 + 56.639209034025185 x3 * x9 + 49.47726750741192 x3 * x12 + 680 x3 * x13 + 49.47726750741192 x3 * x14 + 68 x3 * x17 + 680 x3 * x18 + 68 x3 * x19 + 62.6418390534633 x3 * x22 + 680 x3 * x23 + 62.6418390534633 x3 * x24 - 680 x4 * x4 + 680 x4 * x5 + 56.639209034025185 x4 * x8 + 680 x4 * x9 + 56.639209034025185 x4 * x10 + 49.47726750741192 x4 * x13 + 680 x4 * x14 + 49.47726750741192 x4 * x15 + 68 x4 * x18 + 680 x4 * x19 + 68 x4 * x20 + 62.6418390534633 x4 * x23 + 680 x4 * x24 + 62.6418390534633 x4 * x25 - 680 x5 * x5 + 56.639209034025185 x5 * x9 + 680 x5 * x10 + 49.47726750741192 x5 * x14 + 680 x5 * x15 + 68 x5 * x19 + 680 x5 * x20 + 62.6418390534633 x5 * x24 + 680 x5 * x25 - 680 x6 * x6 + 680 x6 * x7 + 680 x6 * x8 + 680 x6 * x9 + 680 x6 * x10 + 680 x6 * x11 + 31.622776601683793 x6 * x12 + 680 x6 * x16 + 24.166091947189145 x6 * x17 + 680 x6 * x21 + 32.55764119219941 x6 * x22 - 680 x7 * x7 + 680 x7 * x8 + 680 x7 * x9 + 680 x7 * x10 + 31.622776601683793 x7 * x11 + 680 x7 * x12 + 31.622776601683793 x7 * x13 + 24.166091947189145 x7 * x16 + 680 x7 * x17 + 24.166091947189145 x7 * x18 + 32.55764119219941 x7 * x21 + 680 x7 * x22 + 32.55764119219941 x7 * x23 - 680 x8 * x8 + 680 x8 * x9 + 680 x8 * x10 + 31.622776601683793 x8 * x12 + 680 x8 * x13 + 31.622776601683793 x8 * x14 + 24.166091947189145 x8 * x17 + 680 x8 * x18 + 24.166091947189145 x8 * x19 + 32.55764119219941 x8 * x22 + 680 x8 * x23 + 32.55764119219941 x8 * x24 - 680 x9 * x9 + 680 x9 * x10 + 31.622776601683793 x9 * x13 + 680 x9 * x14 + 31.622776601683793 x9 * x15 + 24.166091947189145 x9 * x18 + 680 x9 * x19 + 24.166091947189145 x9 * x20 + 32.55764119219941 x9 * x23 + 680 x9 * x24 + 32.55764119219941 x9 * x25 - 680 x10 * x10 + 31.622776601683793 x10 * x14 + 680 x10 * x15 + 24.166091947189145 x10 * x19 + 680 x10 * x20 + 32.55764119219941 x10 * x24 + 680 x10 * x25 - 680 x11 * x11 + 680 x11 * x12 + 680 x11 * x13 + 680 x11 * x14 + 680 x11 * x15 + 680 x11 * x16 + 23.323807579381203 x11 * x17 + 680 x11 * x21 + 13.416407864998739 x11 * x22 - 680 x12 * x12 + 680 x12 * x13 + 680 x12 * x14 + 680 x12 * x15 + 23.323807579381203 x12 * x16 + 680 x12 * x17 + 23.323807579381203 x12 * x18 + 13.416407864998739 x12 * x21 + 680 x12 * x22 + 13.416407864998739 x12 * x23 - 680 x13 * x13 + 680 x13 * x14 + 680 x13 * x15 + 23.323807579381203 x13 * x17 + 680 x13 * x18 + 23.323807579381203 x13 * x19 + 13.416407864998739 x13 * x22 + 680 x13 * x23 + 13.416407864998739 x13 * x24 - 680 x14 * x14 + 680 x14 * x15 + 23.323807579381203 x14 * x18 + 680 x14 * x19 + 23.323807579381203 x14 * x20 + 13.416407864998739 x14 * x23 + 680 x14 * x24 + 13.416407864998739 x14 * x25 - 680 x15 * x15 + 23.323807579381203 x15 * x19 + 680 x15 * x20 + 13.416407864998739 x15 * x24 + 680 x15 * x25 - 680 x16 * x16 + 680 x16 * x17 + 680 x16 * x18 + 680 x16 * x19 + 680 x16 * x20 + 680 x16 * x21 + 14 x16 * x22 - 680 x17 * x17 + 680 x17 * x18 + 680 x17 * x19 + 680 x17 * x20 + 14 x17 * x21 + 680 x17 * x22 + 14 x17 * x23 - 680 x18 * x18 + 680 x18 * x19 + 680 x18 * x20 + 14 x18 * x22 + 680 x18 * x23 + 14 x18 * x24 - 680 x19 * x19 + 680 x19 * x20 + 14 x19 * x23 + 680 x19 * x24 + 14 x19 * x25 - 680 x20 * x20 + 14 x20 * x24 + 680 x20 * x25 - 680 x21 * x21 + 680 x21 * x22 + 680 x21 * x23 + 680 x21 * x24 + 680 x21 * x25 - 680 x22 * x22 + 680 x22 * x23 + 680 x22 * x24 + 680 x22 * x25 - 680 x23 * x23 + 680 x23 * x24 + 680 x23 * x25 - 680 x24 * x24 + 680 x24 * x25 - 680 x25 * x25 ] / 2

Subject To

 

Binary
x1 x2 x3 x4 x5 x6 x7 x8 x9 x10 x11 x12 x13 x14 x15 x16 x17 x18 x19 x20 x21 x22 x23 x24 x25
End