\ QUBO from TSP

Minimize
  obj: 0 + [ -96.74709297958259 x1 * x1 + 96.74709297958259 x1 * x2 + 96.74709297958259 x1 * x3 + 96.74709297958259 x1 * x4 + 16.1245154965971 x1 * x5 + 96.74709297958259 x1 * x7 + 4.47213595499958 x1 * x8 - 96.74709297958259 x2 * x2 + 96.74709297958259 x2 * x3 + 16.1245154965971 x2 * x4 + 96.74709297958259 x2 * x5 + 16.1245154965971 x2 * x6 + 4.47213595499958 x2 * x7 + 96.74709297958259 x2 * x8 + 4.47213595499958 x2 * x9 - 96.74709297958259 x3 * x3 + 16.1245154965971 x3 * x5 + 96.74709297958259 x3 * x6 + 4.47213595499958 x3 * x8 + 96.74709297958259 x3 * x9 - 96.74709297958259 x4 * x4 + 96.74709297958259 x4 * x5 + 96.74709297958259 x4 * x6 + 96.74709297958259 x4 * x7 + 14.142135623730951 x4 * x8 - 96.74709297958259 x5 * x5 + 96.74709297958259 x5 * x6 + 14.142135623730951 x5 * x7 + 96.74709297958259 x5 * x8 + 14.142135623730951 x5 * x9 - 96.74709297958259 x6 * x6 + 14.142135623730951 x6 * x8 + 96.74709297958259 x6 * x9 - 96.74709297958259 x7 * x7 + 96.74709297958259 x7 * x8 + 96.74709297958259 x7 * x9 - 96.74709297958259 x8 * x8 + 96.74709297958259 x8 * x9 - 96.74709297958259 x9 * x9 ] / 2

Subject To

 

Binary
x1 x2 x3 x4 x5 x6 x7 x8 x9
End