\ QUBO from TSP

Minimize
  obj: 0 + [ -252.98221281347034 x1 * x1 + 252.98221281347034 x1 * x2 + 252.98221281347034 x1 * x3 + 252.98221281347034 x1 * x4 + 252.98221281347034 x1 * x5 + 22.80350850198276 x1 * x6 + 252.98221281347034 x1 * x9 + 16 x1 * x10 + 252.98221281347034 x1 * x13 + 31.622776601683793 x1 * x14 - 252.98221281347034 x2 * x2 + 252.98221281347034 x2 * x3 + 252.98221281347034 x2 * x4 + 22.80350850198276 x2 * x5 + 252.98221281347034 x2 * x6 + 22.80350850198276 x2 * x7 + 16 x2 * x9 + 252.98221281347034 x2 * x10 + 16 x2 * x11 + 31.622776601683793 x2 * x13 + 252.98221281347034 x2 * x14 + 31.622776601683793 x2 * x15 - 252.98221281347034 x3 * x3 + 252.98221281347034 x3 * x4 + 22.80350850198276 x3 * x6 + 252.98221281347034 x3 * x7 + 22.80350850198276 x3 * x8 + 16 x3 * x10 + 252.98221281347034 x3 * x11 + 16 x3 * x12 + 31.622776601683793 x3 * x14 + 252.98221281347034 x3 * x15 + 31.622776601683793 x3 * x16 - 252.98221281347034 x4 * x4 + 22.80350850198276 x4 * x7 + 252.98221281347034 x4 * x8 + 16 x4 * x11 + 252.98221281347034 x4 * x12 + 31.622776601683793 x4 * x15 + 252.98221281347034 x4 * x16 - 252.98221281347034 x5 * x5 + 252.98221281347034 x5 * x6 + 252.98221281347034 x5 * x7 + 252.98221281347034 x5 * x8 + 252.98221281347034 x5 * x9 + 18.110770276274835 x5 * x10 + 252.98221281347034 x5 * x13 + 17.88854381999832 x5 * x14 - 252.98221281347034 x6 * x6 + 252.98221281347034 x6 * x7 + 252.98221281347034 x6 * x8 + 18.110770276274835 x6 * x9 + 252.98221281347034 x6 * x10 + 18.110770276274835 x6 * x11 + 17.88854381999832 x6 * x13 + 252.98221281347034 x6 * x14 + 17.88854381999832 x6 * x15 - 252.98221281347034 x7 * x7 + 252.98221281347034 x7 * x8 + 18.110770276274835 x7 * x10 + 252.98221281347034 x7 * x11 + 18.110770276274835 x7 * x12 + 17.88854381999832 x7 * x14 + 252.98221281347034 x7 * x15 + 17.88854381999832 x7 * x16 - 252.98221281347034 x8 * x8 + 18.110770276274835 x8 * x11 + 252.98221281347034 x8 * x12 + 17.88854381999832 x8 * x15 + 252.98221281347034 x8 * x16 - 252.98221281347034 x9 * x9 + 252.98221281347034 x9 * x10 + 252.98221281347034 x9 * x11 + 252.98221281347034 x9 * x12 + 252.98221281347034 x9 * x13 + 17.204650534085253 x9 * x14 - 252.98221281347034 x10 * x10 + 252.98221281347034 x10 * x11 + 252.98221281347034 x10 * x12 + 17.204650534085253 x10 * x13 + 252.98221281347034 x10 * x14 + 17.204650534085253 x10 * x15 - 252.98221281347034 x11 * x11 + 252.98221281347034 x11 * x12 + 17.204650534085253 x11 * x14 + 252.98221281347034 x11 * x15 + 17.204650534085253 x11 * x16 - 252.98221281347034 x12 * x12 + 17.204650534085253 x12 * x15 + 252.98221281347034 x12 * x16 - 252.98221281347034 x13 * x13 + 252.98221281347034 x13 * x14 + 252.98221281347034 x13 * x15 + 252.98221281347034 x13 * x16 - 252.98221281347034 x14 * x14 + 252.98221281347034 x14 * x15 + 252.98221281347034 x14 * x16 - 252.98221281347034 x15 * x15 + 252.98221281347034 x15 * x16 - 252.98221281347034 x16 * x16 ] / 2

Subject To

 

Binary
x1 x2 x3 x4 x5 x6 x7 x8 x9 x10 x11 x12 x13 x14 x15 x16
End