\ QUBO from TSP

Minimize
  obj: 0 + [ -206.45580640902304 x1 * x1 + 206.45580640902304 x1 * x2 + 206.45580640902304 x1 * x3 + 206.45580640902304 x1 * x4 + 34.40930106817051 x1 * x5 + 206.45580640902304 x1 * x7 + 29.5296461204668 x1 * x8 - 206.45580640902304 x2 * x2 + 206.45580640902304 x2 * x3 + 34.40930106817051 x2 * x4 + 206.45580640902304 x2 * x5 + 34.40930106817051 x2 * x6 + 29.5296461204668 x2 * x7 + 206.45580640902304 x2 * x8 + 29.5296461204668 x2 * x9 - 206.45580640902304 x3 * x3 + 34.40930106817051 x3 * x5 + 206.45580640902304 x3 * x6 + 29.5296461204668 x3 * x8 + 206.45580640902304 x3 * x9 - 206.45580640902304 x4 * x4 + 206.45580640902304 x4 * x5 + 206.45580640902304 x4 * x6 + 206.45580640902304 x4 * x7 + 15.231546211727817 x4 * x8 - 206.45580640902304 x5 * x5 + 206.45580640902304 x5 * x6 + 15.231546211727817 x5 * x7 + 206.45580640902304 x5 * x8 + 15.231546211727817 x5 * x9 - 206.45580640902304 x6 * x6 + 15.231546211727817 x6 * x8 + 206.45580640902304 x6 * x9 - 206.45580640902304 x7 * x7 + 206.45580640902304 x7 * x8 + 206.45580640902304 x7 * x9 - 206.45580640902304 x8 * x8 + 206.45580640902304 x8 * x9 - 206.45580640902304 x9 * x9 ] / 2

Subject To

 

Binary
x1 x2 x3 x4 x5 x6 x7 x8 x9
End