\ QUBO from TSP

Minimize
  obj: 0 + [ -527.1811832757311 x1 * x1 + 527.1811832757311 x1 * x2 + 527.1811832757311 x1 * x3 + 527.1811832757311 x1 * x4 + 78.81624198095213 x1 * x5 + 527.1811832757311 x1 * x7 + 87.86353054595519 x1 * x8 - 527.1811832757311 x2 * x2 + 527.1811832757311 x2 * x3 + 78.81624198095213 x2 * x4 + 527.1811832757311 x2 * x5 + 78.81624198095213 x2 * x6 + 87.86353054595519 x2 * x7 + 527.1811832757311 x2 * x8 + 87.86353054595519 x2 * x9 - 527.1811832757311 x3 * x3 + 78.81624198095213 x3 * x5 + 527.1811832757311 x3 * x6 + 87.86353054595519 x3 * x8 + 527.1811832757311 x3 * x9 - 527.1811832757311 x4 * x4 + 527.1811832757311 x4 * x5 + 527.1811832757311 x4 * x6 + 527.1811832757311 x4 * x7 + 12.165525060596439 x4 * x8 - 527.1811832757311 x5 * x5 + 527.1811832757311 x5 * x6 + 12.165525060596439 x5 * x7 + 527.1811832757311 x5 * x8 + 12.165525060596439 x5 * x9 - 527.1811832757311 x6 * x6 + 12.165525060596439 x6 * x8 + 527.1811832757311 x6 * x9 - 527.1811832757311 x7 * x7 + 527.1811832757311 x7 * x8 + 527.1811832757311 x7 * x9 - 527.1811832757311 x8 * x8 + 527.1811832757311 x8 * x9 - 527.1811832757311 x9 * x9 ] / 2

Subject To

 

Binary
x1 x2 x3 x4 x5 x6 x7 x8 x9
End