\ QUBO from TSP

Minimize
  obj: 0 + [ -554.4871504372306 x1 * x1 + 554.4871504372306 x1 * x2 + 554.4871504372306 x1 * x3 + 554.4871504372306 x1 * x4 + 554.4871504372306 x1 * x5 + 44.04543109109048 x1 * x6 + 554.4871504372306 x1 * x9 + 56.32051136131489 x1 * x10 + 554.4871504372306 x1 * x13 + 69.31089380465383 x1 * x14 - 554.4871504372306 x2 * x2 + 554.4871504372306 x2 * x3 + 554.4871504372306 x2 * x4 + 44.04543109109048 x2 * x5 + 554.4871504372306 x2 * x6 + 44.04543109109048 x2 * x7 + 56.32051136131489 x2 * x9 + 554.4871504372306 x2 * x10 + 56.32051136131489 x2 * x11 + 69.31089380465383 x2 * x13 + 554.4871504372306 x2 * x14 + 69.31089380465383 x2 * x15 - 554.4871504372306 x3 * x3 + 554.4871504372306 x3 * x4 + 44.04543109109048 x3 * x6 + 554.4871504372306 x3 * x7 + 44.04543109109048 x3 * x8 + 56.32051136131489 x3 * x10 + 554.4871504372306 x3 * x11 + 56.32051136131489 x3 * x12 + 69.31089380465383 x3 * x14 + 554.4871504372306 x3 * x15 + 69.31089380465383 x3 * x16 - 554.4871504372306 x4 * x4 + 44.04543109109048 x4 * x7 + 554.4871504372306 x4 * x8 + 56.32051136131489 x4 * x11 + 554.4871504372306 x4 * x12 + 69.31089380465383 x4 * x15 + 554.4871504372306 x4 * x16 - 554.4871504372306 x5 * x5 + 554.4871504372306 x5 * x6 + 554.4871504372306 x5 * x7 + 554.4871504372306 x5 * x8 + 554.4871504372306 x5 * x9 + 14.422205101855956 x5 * x10 + 554.4871504372306 x5 * x13 + 52.15361924162119 x5 * x14 - 554.4871504372306 x6 * x6 + 554.4871504372306 x6 * x7 + 554.4871504372306 x6 * x8 + 14.422205101855956 x6 * x9 + 554.4871504372306 x6 * x10 + 14.422205101855956 x6 * x11 + 52.15361924162119 x6 * x13 + 554.4871504372306 x6 * x14 + 52.15361924162119 x6 * x15 - 554.4871504372306 x7 * x7 + 554.4871504372306 x7 * x8 + 14.422205101855956 x7 * x10 + 554.4871504372306 x7 * x11 + 14.422205101855956 x7 * x12 + 52.15361924162119 x7 * x14 + 554.4871504372306 x7 * x15 + 52.15361924162119 x7 * x16 - 554.4871504372306 x8 * x8 + 14.422205101855956 x8 * x11 + 554.4871504372306 x8 * x12 + 52.15361924162119 x8 * x15 + 554.4871504372306 x8 * x16 - 554.4871504372306 x9 * x9 + 554.4871504372306 x9 * x10 + 554.4871504372306 x9 * x11 + 554.4871504372306 x9 * x12 + 554.4871504372306 x9 * x13 + 44.721359549995796 x9 * x14 - 554.4871504372306 x10 * x10 + 554.4871504372306 x10 * x11 + 554.4871504372306 x10 * x12 + 44.721359549995796 x10 * x13 + 554.4871504372306 x10 * x14 + 44.721359549995796 x10 * x15 - 554.4871504372306 x11 * x11 + 554.4871504372306 x11 * x12 + 44.721359549995796 x11 * x14 + 554.4871504372306 x11 * x15 + 44.721359549995796 x11 * x16 - 554.4871504372306 x12 * x12 + 44.721359549995796 x12 * x15 + 554.4871504372306 x12 * x16 - 554.4871504372306 x13 * x13 + 554.4871504372306 x13 * x14 + 554.4871504372306 x13 * x15 + 554.4871504372306 x13 * x16 - 554.4871504372306 x14 * x14 + 554.4871504372306 x14 * x15 + 554.4871504372306 x14 * x16 - 554.4871504372306 x15 * x15 + 554.4871504372306 x15 * x16 - 554.4871504372306 x16 * x16 ] / 2

Subject To

 

Binary
x1 x2 x3 x4 x5 x6 x7 x8 x9 x10 x11 x12 x13 x14 x15 x16
End