\ QUBO from TSP

Minimize
  obj: 0 + [ -222.27910383119686 x1 * x1 + 222.27910383119686 x1 * x2 + 222.27910383119686 x1 * x3 + 222.27910383119686 x1 * x4 + 222.27910383119686 x1 * x5 + 27.784887978899608 x1 * x6 + 222.27910383119686 x1 * x9 + 24.08318915758459 x1 * x10 + 222.27910383119686 x1 * x13 + 20 x1 * x14 - 222.27910383119686 x2 * x2 + 222.27910383119686 x2 * x3 + 222.27910383119686 x2 * x4 + 27.784887978899608 x2 * x5 + 222.27910383119686 x2 * x6 + 27.784887978899608 x2 * x7 + 24.08318915758459 x2 * x9 + 222.27910383119686 x2 * x10 + 24.08318915758459 x2 * x11 + 20 x2 * x13 + 222.27910383119686 x2 * x14 + 20 x2 * x15 - 222.27910383119686 x3 * x3 + 222.27910383119686 x3 * x4 + 27.784887978899608 x3 * x6 + 222.27910383119686 x3 * x7 + 27.784887978899608 x3 * x8 + 24.08318915758459 x3 * x10 + 222.27910383119686 x3 * x11 + 24.08318915758459 x3 * x12 + 20 x3 * x14 + 222.27910383119686 x3 * x15 + 20 x3 * x16 - 222.27910383119686 x4 * x4 + 27.784887978899608 x4 * x7 + 222.27910383119686 x4 * x8 + 24.08318915758459 x4 * x11 + 222.27910383119686 x4 * x12 + 20 x4 * x15 + 222.27910383119686 x4 * x16 - 222.27910383119686 x5 * x5 + 222.27910383119686 x5 * x6 + 222.27910383119686 x5 * x7 + 222.27910383119686 x5 * x8 + 222.27910383119686 x5 * x9 + 24.166091947189145 x5 * x10 + 222.27910383119686 x5 * x13 + 12.165525060596439 x5 * x14 - 222.27910383119686 x6 * x6 + 222.27910383119686 x6 * x7 + 222.27910383119686 x6 * x8 + 24.166091947189145 x6 * x9 + 222.27910383119686 x6 * x10 + 24.166091947189145 x6 * x11 + 12.165525060596439 x6 * x13 + 222.27910383119686 x6 * x14 + 12.165525060596439 x6 * x15 - 222.27910383119686 x7 * x7 + 222.27910383119686 x7 * x8 + 24.166091947189145 x7 * x10 + 222.27910383119686 x7 * x11 + 24.166091947189145 x7 * x12 + 12.165525060596439 x7 * x14 + 222.27910383119686 x7 * x15 + 12.165525060596439 x7 * x16 - 222.27910383119686 x8 * x8 + 24.166091947189145 x8 * x11 + 222.27910383119686 x8 * x12 + 12.165525060596439 x8 * x15 + 222.27910383119686 x8 * x16 - 222.27910383119686 x9 * x9 + 222.27910383119686 x9 * x10 + 222.27910383119686 x9 * x11 + 222.27910383119686 x9 * x12 + 222.27910383119686 x9 * x13 + 12.806248474865697 x9 * x14 - 222.27910383119686 x10 * x10 + 222.27910383119686 x10 * x11 + 222.27910383119686 x10 * x12 + 12.806248474865697 x10 * x13 + 222.27910383119686 x10 * x14 + 12.806248474865697 x10 * x15 - 222.27910383119686 x11 * x11 + 222.27910383119686 x11 * x12 + 12.806248474865697 x11 * x14 + 222.27910383119686 x11 * x15 + 12.806248474865697 x11 * x16 - 222.27910383119686 x12 * x12 + 12.806248474865697 x12 * x15 + 222.27910383119686 x12 * x16 - 222.27910383119686 x13 * x13 + 222.27910383119686 x13 * x14 + 222.27910383119686 x13 * x15 + 222.27910383119686 x13 * x16 - 222.27910383119686 x14 * x14 + 222.27910383119686 x14 * x15 + 222.27910383119686 x14 * x16 - 222.27910383119686 x15 * x15 + 222.27910383119686 x15 * x16 - 222.27910383119686 x16 * x16 ] / 2

Subject To

 

Binary
x1 x2 x3 x4 x5 x6 x7 x8 x9 x10 x11 x12 x13 x14 x15 x16
End