\ QUBO from TSP

Minimize
  obj: 0 + [ -264.27258654654287 x1 * x1 + 264.27258654654287 x1 * x2 + 264.27258654654287 x1 * x3 + 264.27258654654287 x1 * x4 + 42.04759208325728 x1 * x5 + 264.27258654654287 x1 * x7 + 44.04543109109048 x1 * x8 - 264.27258654654287 x2 * x2 + 264.27258654654287 x2 * x3 + 42.04759208325728 x2 * x4 + 264.27258654654287 x2 * x5 + 42.04759208325728 x2 * x6 + 44.04543109109048 x2 * x7 + 264.27258654654287 x2 * x8 + 44.04543109109048 x2 * x9 - 264.27258654654287 x3 * x3 + 42.04759208325728 x3 * x5 + 264.27258654654287 x3 * x6 + 44.04543109109048 x3 * x8 + 264.27258654654287 x3 * x9 - 264.27258654654287 x4 * x4 + 264.27258654654287 x4 * x5 + 264.27258654654287 x4 * x6 + 264.27258654654287 x4 * x7 + 17.08800749063506 x4 * x8 - 264.27258654654287 x5 * x5 + 264.27258654654287 x5 * x6 + 17.08800749063506 x5 * x7 + 264.27258654654287 x5 * x8 + 17.08800749063506 x5 * x9 - 264.27258654654287 x6 * x6 + 17.08800749063506 x6 * x8 + 264.27258654654287 x6 * x9 - 264.27258654654287 x7 * x7 + 264.27258654654287 x7 * x8 + 264.27258654654287 x7 * x9 - 264.27258654654287 x8 * x8 + 264.27258654654287 x8 * x9 - 264.27258654654287 x9 * x9 ] / 2

Subject To

 

Binary
x1 x2 x3 x4 x5 x6 x7 x8 x9
End