\ QUBO from TSP

Minimize
  obj: 0 + [ -675.2303310722941 x1 * x1 + 675.2303310722941 x1 * x2 + 675.2303310722941 x1 * x3 + 675.2303310722941 x1 * x4 + 675.2303310722941 x1 * x5 + 63.812224534175265 x1 * x6 + 675.2303310722941 x1 * x9 + 84.40379138403677 x1 * x10 + 675.2303310722941 x1 * x13 + 60.959002616512684 x1 * x14 - 675.2303310722941 x2 * x2 + 675.2303310722941 x2 * x3 + 675.2303310722941 x2 * x4 + 63.812224534175265 x2 * x5 + 675.2303310722941 x2 * x6 + 63.812224534175265 x2 * x7 + 84.40379138403677 x2 * x9 + 675.2303310722941 x2 * x10 + 84.40379138403677 x2 * x11 + 60.959002616512684 x2 * x13 + 675.2303310722941 x2 * x14 + 60.959002616512684 x2 * x15 - 675.2303310722941 x3 * x3 + 675.2303310722941 x3 * x4 + 63.812224534175265 x3 * x6 + 675.2303310722941 x3 * x7 + 63.812224534175265 x3 * x8 + 84.40379138403677 x3 * x10 + 675.2303310722941 x3 * x11 + 84.40379138403677 x3 * x12 + 60.959002616512684 x3 * x14 + 675.2303310722941 x3 * x15 + 60.959002616512684 x3 * x16 - 675.2303310722941 x4 * x4 + 63.812224534175265 x4 * x7 + 675.2303310722941 x4 * x8 + 84.40379138403677 x4 * x11 + 675.2303310722941 x4 * x12 + 60.959002616512684 x4 * x15 + 675.2303310722941 x4 * x16 - 675.2303310722941 x5 * x5 + 675.2303310722941 x5 * x6 + 675.2303310722941 x5 * x7 + 675.2303310722941 x5 * x8 + 675.2303310722941 x5 * x9 + 21.2602916254693 x5 * x10 + 675.2303310722941 x5 * x13 + 10 x5 * x14 - 675.2303310722941 x6 * x6 + 675.2303310722941 x6 * x7 + 675.2303310722941 x6 * x8 + 21.2602916254693 x6 * x9 + 675.2303310722941 x6 * x10 + 21.2602916254693 x6 * x11 + 10 x6 * x13 + 675.2303310722941 x6 * x14 + 10 x6 * x15 - 675.2303310722941 x7 * x7 + 675.2303310722941 x7 * x8 + 21.2602916254693 x7 * x10 + 675.2303310722941 x7 * x11 + 21.2602916254693 x7 * x12 + 10 x7 * x14 + 675.2303310722941 x7 * x15 + 10 x7 * x16 - 675.2303310722941 x8 * x8 + 21.2602916254693 x8 * x11 + 675.2303310722941 x8 * x12 + 10 x8 * x15 + 675.2303310722941 x8 * x16 - 675.2303310722941 x9 * x9 + 675.2303310722941 x9 * x10 + 675.2303310722941 x9 * x11 + 675.2303310722941 x9 * x12 + 675.2303310722941 x9 * x13 + 24.166091947189145 x9 * x14 - 675.2303310722941 x10 * x10 + 675.2303310722941 x10 * x11 + 675.2303310722941 x10 * x12 + 24.166091947189145 x10 * x13 + 675.2303310722941 x10 * x14 + 24.166091947189145 x10 * x15 - 675.2303310722941 x11 * x11 + 675.2303310722941 x11 * x12 + 24.166091947189145 x11 * x14 + 675.2303310722941 x11 * x15 + 24.166091947189145 x11 * x16 - 675.2303310722941 x12 * x12 + 24.166091947189145 x12 * x15 + 675.2303310722941 x12 * x16 - 675.2303310722941 x13 * x13 + 675.2303310722941 x13 * x14 + 675.2303310722941 x13 * x15 + 675.2303310722941 x13 * x16 - 675.2303310722941 x14 * x14 + 675.2303310722941 x14 * x15 + 675.2303310722941 x14 * x16 - 675.2303310722941 x15 * x15 + 675.2303310722941 x15 * x16 - 675.2303310722941 x16 * x16 ] / 2

Subject To

 

Binary
x1 x2 x3 x4 x5 x6 x7 x8 x9 x10 x11 x12 x13 x14 x15 x16
End