\ QUBO from TSP

Minimize
  obj: 0 + [ -519.1993836668145 x1 * x1 + 519.1993836668145 x1 * x2 + 519.1993836668145 x1 * x3 + 519.1993836668145 x1 * x4 + 519.1993836668145 x1 * x5 + 64.89992295835181 x1 * x6 + 519.1993836668145 x1 * x9 + 64.1248781675256 x1 * x10 + 519.1993836668145 x1 * x13 + 58.240879114244144 x1 * x14 - 519.1993836668145 x2 * x2 + 519.1993836668145 x2 * x3 + 519.1993836668145 x2 * x4 + 64.89992295835181 x2 * x5 + 519.1993836668145 x2 * x6 + 64.89992295835181 x2 * x7 + 64.1248781675256 x2 * x9 + 519.1993836668145 x2 * x10 + 64.1248781675256 x2 * x11 + 58.240879114244144 x2 * x13 + 519.1993836668145 x2 * x14 + 58.240879114244144 x2 * x15 - 519.1993836668145 x3 * x3 + 519.1993836668145 x3 * x4 + 64.89992295835181 x3 * x6 + 519.1993836668145 x3 * x7 + 64.89992295835181 x3 * x8 + 64.1248781675256 x3 * x10 + 519.1993836668145 x3 * x11 + 64.1248781675256 x3 * x12 + 58.240879114244144 x3 * x14 + 519.1993836668145 x3 * x15 + 58.240879114244144 x3 * x16 - 519.1993836668145 x4 * x4 + 64.89992295835181 x4 * x7 + 519.1993836668145 x4 * x8 + 64.1248781675256 x4 * x11 + 519.1993836668145 x4 * x12 + 58.240879114244144 x4 * x15 + 519.1993836668145 x4 * x16 - 519.1993836668145 x5 * x5 + 519.1993836668145 x5 * x6 + 519.1993836668145 x5 * x7 + 519.1993836668145 x5 * x8 + 519.1993836668145 x5 * x9 + 33.52610922848042 x5 * x10 + 519.1993836668145 x5 * x13 + 20.09975124224178 x5 * x14 - 519.1993836668145 x6 * x6 + 519.1993836668145 x6 * x7 + 519.1993836668145 x6 * x8 + 33.52610922848042 x6 * x9 + 519.1993836668145 x6 * x10 + 33.52610922848042 x6 * x11 + 20.09975124224178 x6 * x13 + 519.1993836668145 x6 * x14 + 20.09975124224178 x6 * x15 - 519.1993836668145 x7 * x7 + 519.1993836668145 x7 * x8 + 33.52610922848042 x7 * x10 + 519.1993836668145 x7 * x11 + 33.52610922848042 x7 * x12 + 20.09975124224178 x7 * x14 + 519.1993836668145 x7 * x15 + 20.09975124224178 x7 * x16 - 519.1993836668145 x8 * x8 + 33.52610922848042 x8 * x11 + 519.1993836668145 x8 * x12 + 20.09975124224178 x8 * x15 + 519.1993836668145 x8 * x16 - 519.1993836668145 x9 * x9 + 519.1993836668145 x9 * x10 + 519.1993836668145 x9 * x11 + 519.1993836668145 x9 * x12 + 519.1993836668145 x9 * x13 + 14.422205101855956 x9 * x14 - 519.1993836668145 x10 * x10 + 519.1993836668145 x10 * x11 + 519.1993836668145 x10 * x12 + 14.422205101855956 x10 * x13 + 519.1993836668145 x10 * x14 + 14.422205101855956 x10 * x15 - 519.1993836668145 x11 * x11 + 519.1993836668145 x11 * x12 + 14.422205101855956 x11 * x14 + 519.1993836668145 x11 * x15 + 14.422205101855956 x11 * x16 - 519.1993836668145 x12 * x12 + 14.422205101855956 x12 * x15 + 519.1993836668145 x12 * x16 - 519.1993836668145 x13 * x13 + 519.1993836668145 x13 * x14 + 519.1993836668145 x13 * x15 + 519.1993836668145 x13 * x16 - 519.1993836668145 x14 * x14 + 519.1993836668145 x14 * x15 + 519.1993836668145 x14 * x16 - 519.1993836668145 x15 * x15 + 519.1993836668145 x15 * x16 - 519.1993836668145 x16 * x16 ] / 2

Subject To

 

Binary
x1 x2 x3 x4 x5 x6 x7 x8 x9 x10 x11 x12 x13 x14 x15 x16
End