\ QUBO from TSP

Minimize
  obj: 0 + [ -493.9311692938602 x1 * x1 + 493.9311692938602 x1 * x2 + 493.9311692938602 x1 * x3 + 493.9311692938602 x1 * x4 + 493.9311692938602 x1 * x5 + 46.17358552246078 x1 * x6 + 493.9311692938602 x1 * x9 + 61.741396161732524 x1 * x10 + 493.9311692938602 x1 * x13 + 43.266615305567875 x1 * x14 - 493.9311692938602 x2 * x2 + 493.9311692938602 x2 * x3 + 493.9311692938602 x2 * x4 + 46.17358552246078 x2 * x5 + 493.9311692938602 x2 * x6 + 46.17358552246078 x2 * x7 + 61.741396161732524 x2 * x9 + 493.9311692938602 x2 * x10 + 61.741396161732524 x2 * x11 + 43.266615305567875 x2 * x13 + 493.9311692938602 x2 * x14 + 43.266615305567875 x2 * x15 - 493.9311692938602 x3 * x3 + 493.9311692938602 x3 * x4 + 46.17358552246078 x3 * x6 + 493.9311692938602 x3 * x7 + 46.17358552246078 x3 * x8 + 61.741396161732524 x3 * x10 + 493.9311692938602 x3 * x11 + 61.741396161732524 x3 * x12 + 43.266615305567875 x3 * x14 + 493.9311692938602 x3 * x15 + 43.266615305567875 x3 * x16 - 493.9311692938602 x4 * x4 + 46.17358552246078 x4 * x7 + 493.9311692938602 x4 * x8 + 61.741396161732524 x4 * x11 + 493.9311692938602 x4 * x12 + 43.266615305567875 x4 * x15 + 493.9311692938602 x4 * x16 - 493.9311692938602 x5 * x5 + 493.9311692938602 x5 * x6 + 493.9311692938602 x5 * x7 + 493.9311692938602 x5 * x8 + 493.9311692938602 x5 * x9 + 16.97056274847714 x5 * x10 + 493.9311692938602 x5 * x13 + 12.806248474865697 x5 * x14 - 493.9311692938602 x6 * x6 + 493.9311692938602 x6 * x7 + 493.9311692938602 x6 * x8 + 16.97056274847714 x6 * x9 + 493.9311692938602 x6 * x10 + 16.97056274847714 x6 * x11 + 12.806248474865697 x6 * x13 + 493.9311692938602 x6 * x14 + 12.806248474865697 x6 * x15 - 493.9311692938602 x7 * x7 + 493.9311692938602 x7 * x8 + 16.97056274847714 x7 * x10 + 493.9311692938602 x7 * x11 + 16.97056274847714 x7 * x12 + 12.806248474865697 x7 * x14 + 493.9311692938602 x7 * x15 + 12.806248474865697 x7 * x16 - 493.9311692938602 x8 * x8 + 16.97056274847714 x8 * x11 + 493.9311692938602 x8 * x12 + 12.806248474865697 x8 * x15 + 493.9311692938602 x8 * x16 - 493.9311692938602 x9 * x9 + 493.9311692938602 x9 * x10 + 493.9311692938602 x9 * x11 + 493.9311692938602 x9 * x12 + 493.9311692938602 x9 * x13 + 20.09975124224178 x9 * x14 - 493.9311692938602 x10 * x10 + 493.9311692938602 x10 * x11 + 493.9311692938602 x10 * x12 + 20.09975124224178 x10 * x13 + 493.9311692938602 x10 * x14 + 20.09975124224178 x10 * x15 - 493.9311692938602 x11 * x11 + 493.9311692938602 x11 * x12 + 20.09975124224178 x11 * x14 + 493.9311692938602 x11 * x15 + 20.09975124224178 x11 * x16 - 493.9311692938602 x12 * x12 + 20.09975124224178 x12 * x15 + 493.9311692938602 x12 * x16 - 493.9311692938602 x13 * x13 + 493.9311692938602 x13 * x14 + 493.9311692938602 x13 * x15 + 493.9311692938602 x13 * x16 - 493.9311692938602 x14 * x14 + 493.9311692938602 x14 * x15 + 493.9311692938602 x14 * x16 - 493.9311692938602 x15 * x15 + 493.9311692938602 x15 * x16 - 493.9311692938602 x16 * x16 ] / 2

Subject To

 

Binary
x1 x2 x3 x4 x5 x6 x7 x8 x9 x10 x11 x12 x13 x14 x15 x16
End