\ QUBO from TSP

Minimize
  obj: 0 + [ -189.73665961010275 x1 * x1 + 189.73665961010275 x1 * x2 + 189.73665961010275 x1 * x3 + 189.73665961010275 x1 * x4 + 28.284271247461902 x1 * x5 + 189.73665961010275 x1 * x7 + 31.622776601683793 x1 * x8 - 189.73665961010275 x2 * x2 + 189.73665961010275 x2 * x3 + 28.284271247461902 x2 * x4 + 189.73665961010275 x2 * x5 + 28.284271247461902 x2 * x6 + 31.622776601683793 x2 * x7 + 189.73665961010275 x2 * x8 + 31.622776601683793 x2 * x9 - 189.73665961010275 x3 * x3 + 28.284271247461902 x3 * x5 + 189.73665961010275 x3 * x6 + 31.622776601683793 x3 * x8 + 189.73665961010275 x3 * x9 - 189.73665961010275 x4 * x4 + 189.73665961010275 x4 * x5 + 189.73665961010275 x4 * x6 + 189.73665961010275 x4 * x7 + 14.142135623730951 x4 * x8 - 189.73665961010275 x5 * x5 + 189.73665961010275 x5 * x6 + 14.142135623730951 x5 * x7 + 189.73665961010275 x5 * x8 + 14.142135623730951 x5 * x9 - 189.73665961010275 x6 * x6 + 14.142135623730951 x6 * x8 + 189.73665961010275 x6 * x9 - 189.73665961010275 x7 * x7 + 189.73665961010275 x7 * x8 + 189.73665961010275 x7 * x9 - 189.73665961010275 x8 * x8 + 189.73665961010275 x8 * x9 - 189.73665961010275 x9 * x9 ] / 2

Subject To

 

Binary
x1 x2 x3 x4 x5 x6 x7 x8 x9
End