\ QUBO from TSP

Minimize
  obj: 0 + [ -612.6140710104527 x1 * x1 + 612.6140710104527 x1 * x2 + 612.6140710104527 x1 * x3 + 612.6140710104527 x1 * x4 + 612.6140710104527 x1 * x5 + 63.56099432828282 x1 * x6 + 612.6140710104527 x1 * x9 + 76.57675887630658 x1 * x10 + 612.6140710104527 x1 * x13 + 52.3450093132096 x1 * x14 - 612.6140710104527 x2 * x2 + 612.6140710104527 x2 * x3 + 612.6140710104527 x2 * x4 + 63.56099432828282 x2 * x5 + 612.6140710104527 x2 * x6 + 63.56099432828282 x2 * x7 + 76.57675887630658 x2 * x9 + 612.6140710104527 x2 * x10 + 76.57675887630658 x2 * x11 + 52.3450093132096 x2 * x13 + 612.6140710104527 x2 * x14 + 52.3450093132096 x2 * x15 - 612.6140710104527 x3 * x3 + 612.6140710104527 x3 * x4 + 63.56099432828282 x3 * x6 + 612.6140710104527 x3 * x7 + 63.56099432828282 x3 * x8 + 76.57675887630658 x3 * x10 + 612.6140710104527 x3 * x11 + 76.57675887630658 x3 * x12 + 52.3450093132096 x3 * x14 + 612.6140710104527 x3 * x15 + 52.3450093132096 x3 * x16 - 612.6140710104527 x4 * x4 + 63.56099432828282 x4 * x7 + 612.6140710104527 x4 * x8 + 76.57675887630658 x4 * x11 + 612.6140710104527 x4 * x12 + 52.3450093132096 x4 * x15 + 612.6140710104527 x4 * x16 - 612.6140710104527 x5 * x5 + 612.6140710104527 x5 * x6 + 612.6140710104527 x5 * x7 + 612.6140710104527 x5 * x8 + 612.6140710104527 x5 * x9 + 36.22154055254967 x5 * x10 + 612.6140710104527 x5 * x13 + 12.806248474865697 x5 * x14 - 612.6140710104527 x6 * x6 + 612.6140710104527 x6 * x7 + 612.6140710104527 x6 * x8 + 36.22154055254967 x6 * x9 + 612.6140710104527 x6 * x10 + 36.22154055254967 x6 * x11 + 12.806248474865697 x6 * x13 + 612.6140710104527 x6 * x14 + 12.806248474865697 x6 * x15 - 612.6140710104527 x7 * x7 + 612.6140710104527 x7 * x8 + 36.22154055254967 x7 * x10 + 612.6140710104527 x7 * x11 + 36.22154055254967 x7 * x12 + 12.806248474865697 x7 * x14 + 612.6140710104527 x7 * x15 + 12.806248474865697 x7 * x16 - 612.6140710104527 x8 * x8 + 36.22154055254967 x8 * x11 + 612.6140710104527 x8 * x12 + 12.806248474865697 x8 * x15 + 612.6140710104527 x8 * x16 - 612.6140710104527 x9 * x9 + 612.6140710104527 x9 * x10 + 612.6140710104527 x9 * x11 + 612.6140710104527 x9 * x12 + 612.6140710104527 x9 * x13 + 44.40720662234904 x9 * x14 - 612.6140710104527 x10 * x10 + 612.6140710104527 x10 * x11 + 612.6140710104527 x10 * x12 + 44.40720662234904 x10 * x13 + 612.6140710104527 x10 * x14 + 44.40720662234904 x10 * x15 - 612.6140710104527 x11 * x11 + 612.6140710104527 x11 * x12 + 44.40720662234904 x11 * x14 + 612.6140710104527 x11 * x15 + 44.40720662234904 x11 * x16 - 612.6140710104527 x12 * x12 + 44.40720662234904 x12 * x15 + 612.6140710104527 x12 * x16 - 612.6140710104527 x13 * x13 + 612.6140710104527 x13 * x14 + 612.6140710104527 x13 * x15 + 612.6140710104527 x13 * x16 - 612.6140710104527 x14 * x14 + 612.6140710104527 x14 * x15 + 612.6140710104527 x14 * x16 - 612.6140710104527 x15 * x15 + 612.6140710104527 x15 * x16 - 612.6140710104527 x16 * x16 ] / 2

Subject To

 

Binary
x1 x2 x3 x4 x5 x6 x7 x8 x9 x10 x11 x12 x13 x14 x15 x16
End