\ QUBO from TSP

Minimize
  obj: 0 + [ -422.715034035933 x1 * x1 + 422.715034035933 x1 * x2 + 422.715034035933 x1 * x3 + 422.715034035933 x1 * x4 + 422.715034035933 x1 * x5 + 52.839379254491625 x1 * x6 + 422.715034035933 x1 * x9 + 44.04543109109048 x1 * x10 + 422.715034035933 x1 * x13 + 50.11985634456667 x1 * x14 - 422.715034035933 x2 * x2 + 422.715034035933 x2 * x3 + 422.715034035933 x2 * x4 + 52.839379254491625 x2 * x5 + 422.715034035933 x2 * x6 + 52.839379254491625 x2 * x7 + 44.04543109109048 x2 * x9 + 422.715034035933 x2 * x10 + 44.04543109109048 x2 * x11 + 50.11985634456667 x2 * x13 + 422.715034035933 x2 * x14 + 50.11985634456667 x2 * x15 - 422.715034035933 x3 * x3 + 422.715034035933 x3 * x4 + 52.839379254491625 x3 * x6 + 422.715034035933 x3 * x7 + 52.839379254491625 x3 * x8 + 44.04543109109048 x3 * x10 + 422.715034035933 x3 * x11 + 44.04543109109048 x3 * x12 + 50.11985634456667 x3 * x14 + 422.715034035933 x3 * x15 + 50.11985634456667 x3 * x16 - 422.715034035933 x4 * x4 + 52.839379254491625 x4 * x7 + 422.715034035933 x4 * x8 + 44.04543109109048 x4 * x11 + 422.715034035933 x4 * x12 + 50.11985634456667 x4 * x15 + 422.715034035933 x4 * x16 - 422.715034035933 x5 * x5 + 422.715034035933 x5 * x6 + 422.715034035933 x5 * x7 + 422.715034035933 x5 * x8 + 422.715034035933 x5 * x9 + 12.165525060596439 x5 * x10 + 422.715034035933 x5 * x13 + 28.42534080710379 x5 * x14 - 422.715034035933 x6 * x6 + 422.715034035933 x6 * x7 + 422.715034035933 x6 * x8 + 12.165525060596439 x6 * x9 + 422.715034035933 x6 * x10 + 12.165525060596439 x6 * x11 + 28.42534080710379 x6 * x13 + 422.715034035933 x6 * x14 + 28.42534080710379 x6 * x15 - 422.715034035933 x7 * x7 + 422.715034035933 x7 * x8 + 12.165525060596439 x7 * x10 + 422.715034035933 x7 * x11 + 12.165525060596439 x7 * x12 + 28.42534080710379 x7 * x14 + 422.715034035933 x7 * x15 + 28.42534080710379 x7 * x16 - 422.715034035933 x8 * x8 + 12.165525060596439 x8 * x11 + 422.715034035933 x8 * x12 + 28.42534080710379 x8 * x15 + 422.715034035933 x8 * x16 - 422.715034035933 x9 * x9 + 422.715034035933 x9 * x10 + 422.715034035933 x9 * x11 + 422.715034035933 x9 * x12 + 422.715034035933 x9 * x13 + 18.867962264113206 x9 * x14 - 422.715034035933 x10 * x10 + 422.715034035933 x10 * x11 + 422.715034035933 x10 * x12 + 18.867962264113206 x10 * x13 + 422.715034035933 x10 * x14 + 18.867962264113206 x10 * x15 - 422.715034035933 x11 * x11 + 422.715034035933 x11 * x12 + 18.867962264113206 x11 * x14 + 422.715034035933 x11 * x15 + 18.867962264113206 x11 * x16 - 422.715034035933 x12 * x12 + 18.867962264113206 x12 * x15 + 422.715034035933 x12 * x16 - 422.715034035933 x13 * x13 + 422.715034035933 x13 * x14 + 422.715034035933 x13 * x15 + 422.715034035933 x13 * x16 - 422.715034035933 x14 * x14 + 422.715034035933 x14 * x15 + 422.715034035933 x14 * x16 - 422.715034035933 x15 * x15 + 422.715034035933 x15 * x16 - 422.715034035933 x16 * x16 ] / 2

Subject To

 

Binary
x1 x2 x3 x4 x5 x6 x7 x8 x9 x10 x11 x12 x13 x14 x15 x16
End